; benchmark generated from python API
(set-info :status unknown)
(declare-datatypes ((IntState 0)) (((Mk1 (val1 Int)) (Mk2 (val2 Int)))))
 (declare-fun c_main_~i~6 () Int)
(declare-fun c_main_~bufsize_0~6 () Int)
(declare-fun c_main_~p~6 () Int)
(declare-fun c_main_~ielen~6 () Int)
(assert
 (let (($x129 (<= 3 c_main_~i~6)))
 (let (($x155 (exists ((main_~ielen~6_st IntState) (val!98 Int) )(let ((?x136 (+ c_main_~bufsize_0~6 6)))
 (let (($x43 (and (<= 4 (val2 main_~ielen~6_st)) (<= (+ (* 2 (val2 main_~ielen~6_st)) c_main_~p~6) ?x136))))
 (let (($x52 (not (= main_~ielen~6_st (Mk1 val!98)))))
 (and $x52 $x43)))))
 ))
 (let (($x62 (<= 2 c_main_~i~6)))
 (let ((?x136 (+ c_main_~bufsize_0~6 6)))
 (let (($x120 (<= (+ (* 2 c_main_~ielen~6) c_main_~p~6) ?x136)))
 (let (($x99 (and (< c_main_~i~6 c_main_~ielen~6) $x129 $x120)))
 (and $x99 (not (and $x120 $x62 $x155 $x129))))))))))
(check-sat)
